
Gurobi 8.1.1 (linux64) logging started Tue Oct 29 00:57:46 2019

Academic license - for non-commercial use only

Gurobi 8.1.1 (linux64) logging started Tue Oct 29 00:58:50 2019

Academic license - for non-commercial use only

Gurobi 8.1.1 (linux64) logging started Tue Oct 29 01:03:30 2019

Academic license - for non-commercial use only

Gurobi 8.1.1 (linux64) logging started Tue Oct 29 01:04:20 2019

Academic license - for non-commercial use only

Gurobi 8.1.1 (linux64) logging started Tue Oct 29 01:07:49 2019

Academic license - for non-commercial use only

Gurobi 8.1.1 (linux64) logging started Tue Oct 29 01:12:13 2019

Academic license - for non-commercial use only

Gurobi 8.1.1 (linux64) logging started Tue Oct 29 01:12:22 2019

Academic license - for non-commercial use only

Gurobi 8.1.1 (linux64) logging started Tue Oct 29 01:13:20 2019

Academic license - for non-commercial use only

Gurobi 8.1.1 (linux64) logging started Tue Oct 29 01:16:47 2019

Academic license - for non-commercial use only

Gurobi 8.1.1 (linux64) logging started Tue Oct 29 02:03:09 2019

Academic license - for non-commercial use only

Gurobi 8.1.1 (linux64) logging started Tue Oct 29 02:17:04 2019

Academic license - for non-commercial use only

Gurobi 8.1.1 (linux64) logging started Tue Oct 29 04:28:05 2019

Academic license - for non-commercial use only

Gurobi 8.1.1 (linux64) logging started Tue Oct 29 10:06:42 2019

Academic license - for non-commercial use only

Gurobi 8.1.1 (linux64) logging started Tue Oct 29 10:14:10 2019

Academic license - for non-commercial use only

Gurobi 8.1.1 (linux64) logging started Tue Oct 29 10:17:01 2019

Academic license - for non-commercial use only

Gurobi 8.1.1 (linux64) logging started Tue Oct 29 10:28:28 2019

Academic license - for non-commercial use only

Gurobi 8.1.1 (linux64) logging started Tue Oct 29 10:34:03 2019

Academic license - for non-commercial use only

Gurobi 8.1.1 (linux64) logging started Tue Oct 29 10:37:26 2019


Gurobi 8.1.1 (linux64) logging started Tue Oct 29 10:37:45 2019


Gurobi 8.1.1 (linux64) logging started Tue Oct 29 11:49:22 2019


Gurobi 8.1.1 (linux64) logging started Tue Oct 29 11:50:21 2019


Gurobi 8.1.1 (linux64) logging started Tue Oct 29 11:52:07 2019


Gurobi 8.1.1 (linux64) logging started Tue Oct 29 11:52:37 2019


Gurobi 8.1.1 (linux64) logging started Tue Oct 29 11:56:40 2019


Gurobi 8.1.1 (linux64) logging started Tue Oct 29 11:57:11 2019


Gurobi 8.1.1 (linux64) logging started Tue Oct 29 11:57:40 2019


Gurobi 8.1.1 (linux64) logging started Tue Oct 29 11:58:26 2019


Gurobi 8.1.1 (linux64) logging started Tue Oct 29 11:58:59 2019


Gurobi 8.1.1 (linux64) logging started Tue Oct 29 11:59:52 2019


Gurobi 8.1.1 (linux64) logging started Tue Oct 29 12:00:16 2019


Gurobi 8.1.1 (linux64) logging started Tue Oct 29 12:01:25 2019


Gurobi 8.1.1 (linux64) logging started Tue Oct 29 12:04:37 2019


Gurobi 8.1.1 (linux64) logging started Tue Oct 29 12:53:23 2019


Gurobi 8.1.1 (linux64) logging started Tue Oct 29 13:04:20 2019


Gurobi 8.1.1 (linux64) logging started Tue Oct 29 13:04:52 2019


Gurobi 8.1.1 (linux64) logging started Tue Oct 29 13:10:55 2019


Gurobi 8.1.1 (linux64) logging started Tue Oct 29 13:12:47 2019


Gurobi 8.1.1 (linux64) logging started Tue Oct 29 13:13:30 2019


Gurobi 8.1.1 (linux64) logging started Tue Oct 29 13:26:37 2019


Gurobi 8.1.1 (linux64) logging started Tue Oct 29 13:32:52 2019


Gurobi 8.1.1 (linux64) logging started Tue Oct 29 13:34:03 2019


Gurobi 8.1.1 (linux64) logging started Tue Oct 29 13:35:14 2019


Gurobi 8.1.1 (linux64) logging started Tue Oct 29 13:43:45 2019


Gurobi 8.1.1 (linux64) logging started Tue Oct 29 13:44:33 2019


Gurobi 8.1.1 (linux64) logging started Tue Oct 29 13:46:32 2019


Gurobi 8.1.1 (linux64) logging started Tue Oct 29 13:46:43 2019


Gurobi 8.1.1 (linux64) logging started Tue Oct 29 13:50:39 2019


Gurobi 8.1.1 (linux64) logging started Tue Oct 29 13:55:19 2019


Gurobi 8.1.1 (linux64) logging started Tue Oct 29 13:59:20 2019


Gurobi 8.1.1 (linux64) logging started Tue Oct 29 14:06:01 2019


Gurobi 8.1.1 (linux64) logging started Tue Oct 29 14:31:17 2019


Gurobi 8.1.1 (linux64) logging started Tue Oct 29 14:33:35 2019


Gurobi 8.1.1 (linux64) logging started Tue Oct 29 14:34:21 2019


Gurobi 8.1.1 (linux64) logging started Tue Oct 29 14:37:57 2019


Gurobi 8.1.1 (linux64) logging started Tue Oct 29 14:41:28 2019


Gurobi 8.1.1 (linux64) logging started Tue Oct 29 14:47:23 2019


Gurobi 8.1.1 (linux64) logging started Tue Oct 29 14:52:59 2019


Gurobi 8.1.1 (linux64) logging started Tue Oct 29 14:58:50 2019


Gurobi 8.1.1 (linux64) logging started Tue Oct 29 16:00:30 2019


Gurobi 8.1.1 (linux64) logging started Tue Oct 29 16:03:32 2019


Gurobi 8.1.1 (linux64) logging started Tue Oct 29 16:03:49 2019


Gurobi 8.1.1 (linux64) logging started Tue Oct 29 16:18:53 2019

